MARKOV
390
2 2 2 2 2 2 2 2 2 2 2 2 2 2 2 2 2 2 2 2 2 2 2 2 2 2 2 2 2 2 2 2 2 2 2 2 2 2 2 2 2 2 2 2 2 2 2 2 2 2 2 2 2 2 2 2 2 2 2 2 2 2 2 2 2 2 2 2 2 2 2 2 2 2 2 2 2 2 2 2 2 2 2 2 2 2 2 2 2 2 2 2 2 2 2 2 2 2 2 2 2 2 2 2 2 2 2 2 2 2 2 2 2 2 2 2 2 2 2 2 2 2 2 2 2 2 2 2 2 2 2 2 2 2 2 2 2 2 2 2 2 2 2 2 2 2 2 2 2 2 2 2 2 2 2 2 2 2 2 2 2 2 2 2 2 2 2 2 2 2 2 2 2 2 2 2 2 2 2 2 2 2 2 2 2 2 2 2 2 2 2 2 2 2 2 2 2 2 2 2 2 2 2 2 2 2 2 2 2 2 2 2 2 2 2 2 2 2 2 2 2 2 2 2 2 2 2 2 2 2 2 2 2 2 2 2 2 2 2 2 2 2 2 2 2 2 2 2 2 2 2 2 2 2 2 2 2 2 2 2 2 2 2 2 2 2 2 2 2 2 2 2 2 2 2 2 2 2 2 2 2 2 2 2 2 2 2 2 2 2 2 2 2 2 2 2 2 2 2 2 2 2 2 2 2 2 2 2 2 2 2 2 2 2 2 2 2 2 2 2 2 2 2 2 2 2 2 2 2 2 2 2 2 2 2 2 2 2 2 2 2 2 2 2 2 2 2 2 2 2 2 2 2 2 2 2 2 2 2 2 2 2 2 2 2 2 2 2 2 2 2 2 2 2 2 2 2 2 2 2 2 2 2 2 2 2 2 2 2 2 
390
3 389 149 143 
3 388 46 389 
3 387 60 388 
3 386 171 387 
3 385 79 386 
3 384 27 385 
3 383 31 384 
3 382 193 383 
3 381 62 382 
3 380 184 381 
3 379 126 380 
3 378 104 379 
3 377 76 378 
3 376 24 377 
3 375 93 376 
3 374 85 375 
3 373 18 374 
3 372 144 373 
3 371 164 372 
3 370 178 371 
3 369 159 370 
3 368 134 369 
3 367 100 368 
3 366 177 367 
3 365 183 366 
3 364 167 365 
3 363 52 364 
3 362 173 363 
3 361 161 362 
3 360 65 361 
3 359 77 360 
3 358 68 359 
3 357 165 358 
3 356 59 357 
3 355 36 356 
3 354 10 355 
3 353 71 354 
3 352 98 353 
3 351 162 352 
3 350 72 351 
3 349 170 350 
3 348 136 349 
3 347 26 348 
3 346 49 347 
3 345 141 346 
3 344 74 345 
3 343 191 344 
3 342 57 343 
3 341 51 342 
3 340 153 341 
3 339 75 340 
3 338 32 339 
3 337 180 338 
3 336 94 337 
3 335 106 336 
3 334 174 335 
3 333 54 334 
3 332 55 333 
3 331 113 332 
3 330 50 331 
3 329 64 330 
3 328 7 329 
3 327 95 328 
3 326 43 327 
3 325 42 326 
3 324 185 325 
3 323 158 324 
3 322 154 323 
3 321 130 322 
3 320 15 321 
3 319 40 320 
3 318 2 319 
3 317 131 318 
3 316 38 317 
3 315 97 316 
3 314 105 315 
3 313 48 314 
3 312 61 313 
3 311 135 312 
3 310 13 311 
3 309 66 310 
3 308 111 309 
3 307 83 308 
3 306 91 307 
3 305 156 306 
3 304 176 305 
3 303 145 304 
3 302 146 303 
3 301 58 302 
3 300 6 301 
3 299 117 300 
3 298 45 299 
3 297 39 298 
3 296 118 297 
3 295 115 296 
3 294 84 295 
3 293 80 294 
3 292 182 293 
3 291 70 292 
3 290 152 291 
3 289 128 290 
3 288 88 289 
3 287 92 288 
3 286 73 287 
3 285 37 286 
3 284 0 285 
3 283 125 284 
3 282 181 283 
3 281 28 282 
3 280 44 281 
3 279 25 280 
3 278 129 279 
3 277 179 278 
3 276 5 277 
3 275 30 276 
3 274 151 275 
3 273 187 274 
3 272 20 273 
3 271 166 272 
3 270 35 271 
3 269 4 270 
3 268 186 269 
3 267 114 268 
3 266 120 267 
3 265 63 266 
3 264 109 265 
3 263 142 264 
3 262 86 263 
3 261 168 262 
3 260 140 261 
3 259 172 260 
3 258 11 259 
3 257 47 258 
3 256 82 257 
3 255 137 256 
3 254 188 255 
3 253 121 254 
3 252 22 253 
3 251 89 252 
3 250 157 251 
3 249 67 250 
3 248 107 249 
3 247 139 248 
3 246 127 247 
3 245 102 246 
3 244 99 245 
3 243 112 244 
3 242 87 243 
3 241 53 242 
3 240 189 241 
3 239 138 240 
3 238 169 239 
3 237 23 238 
3 236 148 237 
3 235 78 236 
3 234 160 235 
3 233 163 234 
3 232 90 233 
3 231 110 232 
3 230 195 231 
3 229 147 230 
3 228 1 229 
3 227 16 228 
3 226 21 227 
3 225 19 226 
3 224 69 225 
3 223 133 224 
3 222 108 223 
3 221 175 222 
3 220 132 221 
3 219 12 220 
3 218 124 219 
3 217 190 218 
3 216 155 217 
3 215 14 216 
3 214 122 215 
3 213 119 214 
3 212 101 213 
3 211 81 212 
3 210 192 211 
3 209 96 210 
3 208 56 209 
3 207 33 208 
3 206 29 207 
3 205 150 206 
3 204 9 205 
3 203 8 204 
3 202 3 203 
3 201 34 202 
3 200 17 201 
3 199 116 200 
3 198 123 199 
3 197 41 198 
3 196 103 197 
2 194 196 
1 143 
1 149 
1 46 
1 60 
1 171 
1 79 
1 27 
1 31 
1 193 
1 62 
1 184 
1 104 
1 126 
1 76 
1 24 
1 85 
1 93 
1 18 
1 164 
1 144 
1 178 
1 159 
1 134 
1 100 
1 177 
1 183 
1 167 
1 52 
1 173 
1 161 
1 65 
1 77 
1 68 
1 165 
1 59 
1 36 
1 10 
1 71 
1 98 
1 162 
1 72 
1 170 
1 136 
1 26 
1 49 
1 141 
1 74 
1 191 
1 57 
1 51 
1 75 
1 153 
1 32 
1 180 
1 94 
1 174 
1 106 
1 55 
1 54 
1 113 
1 64 
1 50 
1 7 
1 95 
1 42 
1 43 
1 185 
1 158 
1 154 
1 130 
1 15 
1 2 
1 40 
1 131 
1 38 
1 105 
1 97 
1 61 
1 48 
1 135 
1 66 
1 13 
1 111 
1 156 
1 91 
1 83 
1 176 
1 58 
1 146 
1 145 
1 6 
1 45 
1 117 
1 39 
1 118 
1 115 
1 84 
1 80 
1 182 
1 70 
1 152 
1 128 
1 88 
1 92 
1 73 
1 37 
1 0 
1 125 
1 181 
1 28 
1 44 
1 25 
1 129 
1 179 
1 5 
1 30 
1 151 
1 187 
1 20 
1 166 
1 35 
1 4 
1 186 
1 114 
1 120 
1 63 
1 109 
1 142 
1 86 
1 168 
1 140 
1 172 
1 11 
1 47 
1 82 
1 137 
1 188 
1 121 
1 22 
1 89 
1 157 
1 67 
1 107 
1 139 
1 127 
1 102 
1 99 
1 112 
1 87 
1 53 
1 189 
1 138 
1 169 
1 23 
1 148 
1 78 
1 160 
1 163 
1 90 
1 110 
1 195 
1 147 
1 1 
1 16 
1 21 
1 19 
1 69 
1 133 
1 108 
1 175 
1 132 
1 12 
1 124 
1 190 
1 155 
1 14 
1 122 
1 119 
1 101 
1 81 
1 192 
1 96 
1 56 
1 33 
1 29 
1 150 
1 9 
1 8 
1 3 
1 34 
1 17 
1 116 
1 123 
1 41 
1 103 

8
1.00000000000000 0.90000000000000 0.00000000000000 0.00000000000000 0.00000000000000 0.10000000000000 1.00000000000000 1.00000000000000 
8
1.00000000000000 0.00000000000000 0.20000000000000 0.00000000000000 0.00000000000000 1.00000000000000 0.80000000000000 1.00000000000000 
8
1.00000000000000 0.00000000000000 0.40000000000000 0.00000000000000 0.00000000000000 1.00000000000000 0.60000000000000 1.00000000000000 
8
1.00000000000000 0.00000000000000 0.50000000000000 0.00000000000000 0.00000000000000 1.00000000000000 0.50000000000000 1.00000000000000 
8
1.00000000000000 0.00000000000000 0.00000000000000 0.00000000000000 0.00000000000000 1.00000000000000 1.00000000000000 1.00000000000000 
8
1.00000000000000 0.00000000000000 0.90000000000000 0.00000000000000 0.00000000000000 1.00000000000000 0.10000000000000 1.00000000000000 
8
1.00000000000000 0.00000000000000 0.50000000000000 0.00000000000000 0.00000000000000 1.00000000000000 0.50000000000000 1.00000000000000 
8
1.00000000000000 0.00000000000000 0.89000000000000 0.00000000000000 0.00000000000000 1.00000000000000 0.11000000000000 1.00000000000000 
8
1.00000000000000 0.00000000000000 0.50000000000000 0.00000000000000 0.00000000000000 1.00000000000000 0.50000000000000 1.00000000000000 
8
1.00000000000000 0.00000000000000 0.00000000000000 0.00000000000000 0.00000000000000 1.00000000000000 1.00000000000000 1.00000000000000 
8
1.00000000000000 0.00000000000000 0.89000000000000 0.00000000000000 0.00000000000000 1.00000000000000 0.11000000000000 1.00000000000000 
8
1.00000000000000 0.00000000000000 0.50000000000000 0.00000000000000 0.00000000000000 1.00000000000000 0.50000000000000 1.00000000000000 
8
1.00000000000000 0.00000000000000 0.20000000000000 0.00000000000000 0.00000000000000 1.00000000000000 0.80000000000000 1.00000000000000 
8
1.00000000000000 0.00000000000000 0.40000000000000 0.00000000000000 0.00000000000000 1.00000000000000 0.60000000000000 1.00000000000000 
8
1.00000000000000 0.00000000000000 0.10000000000000 0.00000000000000 0.00000000000000 1.00000000000000 0.90000000000000 1.00000000000000 
8
1.00000000000000 0.00000000000000 0.50000000000000 0.00000000000000 0.00000000000000 1.00000000000000 0.50000000000000 1.00000000000000 
8
1.00000000000000 0.00000000000000 0.50000000000000 0.00000000000000 0.00000000000000 1.00000000000000 0.50000000000000 1.00000000000000 
8
1.00000000000000 0.00000000000000 0.10000000000000 0.00000000000000 0.00000000000000 1.00000000000000 0.90000000000000 1.00000000000000 
8
1.00000000000000 0.00000000000000 0.00000000000000 0.00000000000000 0.00000000000000 1.00000000000000 1.00000000000000 1.00000000000000 
8
1.00000000000000 0.00000000000000 0.50000000000000 0.00000000000000 0.00000000000000 1.00000000000000 0.50000000000000 1.00000000000000 
8
1.00000000000000 0.00000000000000 0.01000000000000 0.00000000000000 0.00000000000000 1.00000000000000 0.99000000000000 1.00000000000000 
8
1.00000000000000 0.00000000000000 0.00000000000000 0.00000000000000 0.00000000000000 1.00000000000000 1.00000000000000 1.00000000000000 
8
1.00000000000000 0.00000000000000 0.00000000000000 0.00000000000000 0.00000000000000 1.00000000000000 1.00000000000000 1.00000000000000 
8
1.00000000000000 0.00000000000000 0.00000000000000 0.00000000000000 0.00000000000000 1.00000000000000 1.00000000000000 1.00000000000000 
8
1.00000000000000 0.00000000000000 0.00000000000000 0.00000000000000 0.00000000000000 1.00000000000000 1.00000000000000 1.00000000000000 
8
1.00000000000000 0.00000000000000 0.50000000000000 0.00000000000000 0.00000000000000 1.00000000000000 0.50000000000000 1.00000000000000 
8
1.00000000000000 0.00000000000000 0.90000000000000 0.00000000000000 0.00000000000000 1.00000000000000 0.10000000000000 1.00000000000000 
8
1.00000000000000 0.00000000000000 0.50000000000000 0.00000000000000 0.00000000000000 1.00000000000000 0.50000000000000 1.00000000000000 
8
1.00000000000000 0.00000000000000 0.00000000000000 0.00000000000000 0.00000000000000 1.00000000000000 1.00000000000000 1.00000000000000 
8
1.00000000000000 0.00000000000000 0.50000000000000 0.00000000000000 0.00000000000000 1.00000000000000 0.50000000000000 1.00000000000000 
8
1.00000000000000 0.00000000000000 0.90000000000000 0.00000000000000 0.00000000000000 1.00000000000000 0.10000000000000 1.00000000000000 
8
1.00000000000000 0.00000000000000 0.50000000000000 0.00000000000000 0.00000000000000 1.00000000000000 0.50000000000000 1.00000000000000 
8
1.00000000000000 0.00000000000000 0.10000000000000 0.00000000000000 0.00000000000000 1.00000000000000 0.90000000000000 1.00000000000000 
8
1.00000000000000 0.00000000000000 0.00000000000000 0.00000000000000 0.00000000000000 1.00000000000000 1.00000000000000 1.00000000000000 
8
1.00000000000000 0.00000000000000 0.10000000000000 0.00000000000000 0.00000000000000 1.00000000000000 0.90000000000000 1.00000000000000 
8
1.00000000000000 0.00000000000000 0.50000000000000 0.00000000000000 0.00000000000000 1.00000000000000 0.50000000000000 1.00000000000000 
8
1.00000000000000 0.00000000000000 0.90000000000000 0.00000000000000 0.00000000000000 1.00000000000000 0.10000000000000 1.00000000000000 
8
1.00000000000000 0.00000000000000 0.50000000000000 0.00000000000000 0.00000000000000 1.00000000000000 0.50000000000000 1.00000000000000 
8
1.00000000000000 0.00000000000000 0.50000000000000 0.00000000000000 0.00000000000000 1.00000000000000 0.50000000000000 1.00000000000000 
8
1.00000000000000 0.00000000000000 0.90000000000000 0.00000000000000 0.00000000000000 1.00000000000000 0.10000000000000 1.00000000000000 
8
1.00000000000000 0.00000000000000 0.09000000000000 0.00000000000000 0.00000000000000 1.00000000000000 0.91000000000000 1.00000000000000 
8
1.00000000000000 0.00000000000000 0.50000000000000 0.00000000000000 0.00000000000000 1.00000000000000 0.50000000000000 1.00000000000000 
8
1.00000000000000 0.00000000000000 0.10000000000000 0.00000000000000 0.00000000000000 1.00000000000000 0.90000000000000 1.00000000000000 
8
1.00000000000000 0.00000000000000 0.50000000000000 0.00000000000000 0.00000000000000 1.00000000000000 0.50000000000000 1.00000000000000 
8
1.00000000000000 0.00000000000000 0.50000000000000 0.00000000000000 0.00000000000000 1.00000000000000 0.50000000000000 1.00000000000000 
8
1.00000000000000 0.00000000000000 0.90000000000000 0.00000000000000 0.00000000000000 1.00000000000000 0.10000000000000 1.00000000000000 
8
1.00000000000000 0.00000000000000 0.09000000000000 0.00000000000000 0.00000000000000 1.00000000000000 0.91000000000000 1.00000000000000 
8
1.00000000000000 0.00000000000000 0.50000000000000 0.00000000000000 0.00000000000000 1.00000000000000 0.50000000000000 1.00000000000000 
8
1.00000000000000 0.00000000000000 0.50000000000000 0.00000000000000 0.00000000000000 1.00000000000000 0.50000000000000 1.00000000000000 
8
1.00000000000000 0.00000000000000 0.00000000000000 0.00000000000000 0.00000000000000 1.00000000000000 1.00000000000000 1.00000000000000 
8
1.00000000000000 0.00000000000000 0.00000000000000 0.00000000000000 0.00000000000000 1.00000000000000 1.00000000000000 1.00000000000000 
8
1.00000000000000 0.00000000000000 0.50000000000000 0.00000000000000 0.00000000000000 1.00000000000000 0.50000000000000 1.00000000000000 
8
1.00000000000000 0.00000000000000 0.00000000000000 0.00000000000000 0.00000000000000 1.00000000000000 1.00000000000000 1.00000000000000 
8
1.00000000000000 0.00000000000000 0.00000000000000 0.00000000000000 0.00000000000000 1.00000000000000 1.00000000000000 1.00000000000000 
8
1.00000000000000 0.00000000000000 0.50000000000000 0.00000000000000 0.00000000000000 1.00000000000000 0.50000000000000 1.00000000000000 
8
1.00000000000000 0.00000000000000 0.10000000000000 0.00000000000000 0.00000000000000 1.00000000000000 0.90000000000000 1.00000000000000 
8
1.00000000000000 0.00000000000000 0.50000000000000 0.00000000000000 0.00000000000000 1.00000000000000 0.50000000000000 1.00000000000000 
8
1.00000000000000 0.00000000000000 0.57000000000000 0.00000000000000 0.00000000000000 1.00000000000000 0.43000000000000 1.00000000000000 
8
1.00000000000000 0.00000000000000 0.00000000000000 0.00000000000000 0.00000000000000 1.00000000000000 1.00000000000000 1.00000000000000 
8
1.00000000000000 0.00000000000000 0.00000000000000 0.00000000000000 0.00000000000000 1.00000000000000 1.00000000000000 1.00000000000000 
8
1.00000000000000 0.00000000000000 0.00000000000000 0.00000000000000 0.00000000000000 1.00000000000000 1.00000000000000 1.00000000000000 
8
1.00000000000000 0.00000000000000 0.50000000000000 0.00000000000000 0.00000000000000 1.00000000000000 0.50000000000000 1.00000000000000 
8
1.00000000000000 0.00000000000000 0.50000000000000 0.00000000000000 0.00000000000000 1.00000000000000 0.50000000000000 1.00000000000000 
8
1.00000000000000 0.00000000000000 0.90000000000000 0.00000000000000 0.00000000000000 1.00000000000000 0.10000000000000 1.00000000000000 
8
1.00000000000000 0.00000000000000 0.00000000000000 0.00000000000000 0.00000000000000 1.00000000000000 1.00000000000000 1.00000000000000 
8
1.00000000000000 0.00000000000000 0.50000000000000 0.00000000000000 0.00000000000000 1.00000000000000 0.50000000000000 1.00000000000000 
8
1.00000000000000 0.00000000000000 0.10000000000000 0.00000000000000 0.00000000000000 1.00000000000000 0.90000000000000 1.00000000000000 
8
1.00000000000000 0.00000000000000 0.50000000000000 0.00000000000000 0.00000000000000 1.00000000000000 0.50000000000000 1.00000000000000 
8
1.00000000000000 0.00000000000000 0.10000000000000 0.00000000000000 0.00000000000000 1.00000000000000 0.90000000000000 1.00000000000000 
8
1.00000000000000 0.00000000000000 0.50000000000000 0.00000000000000 0.00000000000000 1.00000000000000 0.50000000000000 1.00000000000000 
8
1.00000000000000 0.00000000000000 0.40000000000000 0.00000000000000 0.00000000000000 1.00000000000000 0.60000000000000 1.00000000000000 
8
1.00000000000000 0.00000000000000 0.50000000000000 0.00000000000000 0.00000000000000 1.00000000000000 0.50000000000000 1.00000000000000 
8
1.00000000000000 0.00000000000000 0.00000000000000 0.00000000000000 0.00000000000000 1.00000000000000 1.00000000000000 1.00000000000000 
8
1.00000000000000 0.00000000000000 0.50000000000000 0.00000000000000 0.00000000000000 1.00000000000000 0.50000000000000 1.00000000000000 
8
1.00000000000000 0.00000000000000 0.90000000000000 0.00000000000000 0.00000000000000 1.00000000000000 0.10000000000000 1.00000000000000 
8
1.00000000000000 0.00000000000000 0.00000000000000 0.00000000000000 0.00000000000000 1.00000000000000 1.00000000000000 1.00000000000000 
8
1.00000000000000 0.00000000000000 0.50000000000000 0.00000000000000 0.00000000000000 1.00000000000000 0.50000000000000 1.00000000000000 
8
1.00000000000000 0.00000000000000 0.00000000000000 0.00000000000000 0.00000000000000 1.00000000000000 1.00000000000000 1.00000000000000 
8
1.00000000000000 0.00000000000000 0.89000000000000 0.00000000000000 0.00000000000000 1.00000000000000 0.11000000000000 1.00000000000000 
8
1.00000000000000 0.00000000000000 0.50000000000000 0.00000000000000 0.00000000000000 1.00000000000000 0.50000000000000 1.00000000000000 
8
1.00000000000000 0.00000000000000 0.50000000000000 0.00000000000000 0.00000000000000 1.00000000000000 0.50000000000000 1.00000000000000 
8
1.00000000000000 0.00000000000000 0.00000000000000 0.00000000000000 0.00000000000000 1.00000000000000 1.00000000000000 1.00000000000000 
8
1.00000000000000 0.00000000000000 0.50000000000000 0.00000000000000 0.00000000000000 1.00000000000000 0.50000000000000 1.00000000000000 
8
1.00000000000000 0.00000000000000 0.00000000000000 0.00000000000000 0.00000000000000 1.00000000000000 1.00000000000000 1.00000000000000 
8
1.00000000000000 0.00000000000000 0.40000000000000 0.00000000000000 0.00000000000000 1.00000000000000 0.60000000000000 1.00000000000000 
8
1.00000000000000 0.00000000000000 0.50000000000000 0.00000000000000 0.00000000000000 1.00000000000000 0.50000000000000 1.00000000000000 
8
1.00000000000000 0.00000000000000 0.00000000000000 0.00000000000000 0.00000000000000 1.00000000000000 1.00000000000000 1.00000000000000 
8
1.00000000000000 0.00000000000000 0.00000000000000 0.00000000000000 0.00000000000000 1.00000000000000 1.00000000000000 1.00000000000000 
8
1.00000000000000 0.00000000000000 0.10000000000000 0.00000000000000 0.00000000000000 1.00000000000000 0.90000000000000 1.00000000000000 
8
1.00000000000000 0.00000000000000 0.60000000000000 0.00000000000000 0.00000000000000 1.00000000000000 0.40000000000000 1.00000000000000 
8
1.00000000000000 0.00000000000000 0.50000000000000 0.00000000000000 0.00000000000000 1.00000000000000 0.50000000000000 1.00000000000000 
8
1.00000000000000 0.00000000000000 0.10000000000000 0.00000000000000 0.00000000000000 1.00000000000000 0.90000000000000 1.00000000000000 
8
1.00000000000000 0.00000000000000 0.40000000000000 0.00000000000000 0.00000000000000 1.00000000000000 0.60000000000000 1.00000000000000 
8
1.00000000000000 0.00000000000000 0.00000000000000 0.00000000000000 0.00000000000000 1.00000000000000 1.00000000000000 1.00000000000000 
8
1.00000000000000 0.00000000000000 0.50000000000000 0.00000000000000 0.00000000000000 1.00000000000000 0.50000000000000 1.00000000000000 
8
1.00000000000000 0.00000000000000 0.00000000000000 0.00000000000000 0.00000000000000 1.00000000000000 1.00000000000000 1.00000000000000 
8
1.00000000000000 0.00000000000000 0.00000000000000 0.00000000000000 0.00000000000000 1.00000000000000 1.00000000000000 1.00000000000000 
8
1.00000000000000 0.00000000000000 0.10000000000000 0.00000000000000 0.00000000000000 1.00000000000000 0.90000000000000 1.00000000000000 
8
1.00000000000000 0.00000000000000 0.59000000000000 0.00000000000000 0.00000000000000 1.00000000000000 0.41000000000000 1.00000000000000 
8
1.00000000000000 0.00000000000000 0.00000000000000 0.00000000000000 0.00000000000000 1.00000000000000 1.00000000000000 1.00000000000000 
8
1.00000000000000 0.00000000000000 0.40000000000000 0.00000000000000 0.00000000000000 1.00000000000000 0.60000000000000 1.00000000000000 
8
1.00000000000000 0.00000000000000 0.00000000000000 0.00000000000000 0.00000000000000 1.00000000000000 1.00000000000000 1.00000000000000 
8
1.00000000000000 0.00000000000000 0.50000000000000 0.00000000000000 0.00000000000000 1.00000000000000 0.50000000000000 1.00000000000000 
8
1.00000000000000 0.00000000000000 0.90000000000000 0.00000000000000 0.00000000000000 1.00000000000000 0.10000000000000 1.00000000000000 
8
1.00000000000000 0.00000000000000 0.50000000000000 0.00000000000000 0.00000000000000 1.00000000000000 0.50000000000000 1.00000000000000 
8
1.00000000000000 0.00000000000000 0.00000000000000 0.00000000000000 0.00000000000000 1.00000000000000 1.00000000000000 1.00000000000000 
8
1.00000000000000 0.00000000000000 0.00000000000000 0.00000000000000 0.00000000000000 1.00000000000000 1.00000000000000 1.00000000000000 
8
1.00000000000000 0.00000000000000 0.90000000000000 0.00000000000000 0.00000000000000 1.00000000000000 0.10000000000000 1.00000000000000 
8
1.00000000000000 0.00000000000000 0.60000000000000 0.00000000000000 0.00000000000000 1.00000000000000 0.40000000000000 1.00000000000000 
8
1.00000000000000 0.00000000000000 0.40000000000000 0.00000000000000 0.00000000000000 1.00000000000000 0.60000000000000 1.00000000000000 
8
1.00000000000000 0.00000000000000 0.50000000000000 0.00000000000000 0.00000000000000 1.00000000000000 0.50000000000000 1.00000000000000 
8
1.00000000000000 0.00000000000000 0.10000000000000 0.00000000000000 0.00000000000000 1.00000000000000 0.90000000000000 1.00000000000000 
8
1.00000000000000 0.00000000000000 0.40000000000000 0.00000000000000 0.00000000000000 1.00000000000000 0.60000000000000 1.00000000000000 
8
1.00000000000000 0.00000000000000 0.00000000000000 0.00000000000000 0.00000000000000 1.00000000000000 1.00000000000000 1.00000000000000 
8
1.00000000000000 0.00000000000000 0.00000000000000 0.00000000000000 0.00000000000000 1.00000000000000 1.00000000000000 1.00000000000000 
8
1.00000000000000 0.00000000000000 0.50000000000000 0.00000000000000 0.00000000000000 1.00000000000000 0.50000000000000 1.00000000000000 
8
1.00000000000000 0.00000000000000 0.09000000000000 0.00000000000000 0.00000000000000 1.00000000000000 0.91000000000000 1.00000000000000 
8
1.00000000000000 0.00000000000000 0.00000000000000 0.00000000000000 0.00000000000000 1.00000000000000 1.00000000000000 1.00000000000000 
8
1.00000000000000 0.00000000000000 0.00000000000000 0.00000000000000 0.00000000000000 1.00000000000000 1.00000000000000 1.00000000000000 
8
1.00000000000000 0.00000000000000 0.50000000000000 0.00000000000000 0.00000000000000 1.00000000000000 0.50000000000000 1.00000000000000 
8
1.00000000000000 0.00000000000000 0.00000000000000 0.00000000000000 0.00000000000000 1.00000000000000 1.00000000000000 1.00000000000000 
8
1.00000000000000 0.00000000000000 0.00000000000000 0.00000000000000 0.00000000000000 1.00000000000000 1.00000000000000 1.00000000000000 
8
1.00000000000000 0.00000000000000 0.89000000000000 0.00000000000000 0.00000000000000 1.00000000000000 0.11000000000000 1.00000000000000 
8
1.00000000000000 0.00000000000000 0.00000000000000 0.00000000000000 0.00000000000000 1.00000000000000 1.00000000000000 1.00000000000000 
8
1.00000000000000 0.00000000000000 0.00000000000000 0.00000000000000 0.00000000000000 1.00000000000000 1.00000000000000 1.00000000000000 
8
1.00000000000000 0.00000000000000 0.00000000000000 0.00000000000000 0.00000000000000 1.00000000000000 1.00000000000000 1.00000000000000 
8
1.00000000000000 0.00000000000000 0.50000000000000 0.00000000000000 0.00000000000000 1.00000000000000 0.50000000000000 1.00000000000000 
8
1.00000000000000 0.00000000000000 0.50000000000000 0.00000000000000 0.00000000000000 1.00000000000000 0.50000000000000 1.00000000000000 
8
1.00000000000000 0.00000000000000 0.50000000000000 0.00000000000000 0.00000000000000 1.00000000000000 0.50000000000000 1.00000000000000 
8
1.00000000000000 0.00000000000000 0.50000000000000 0.00000000000000 0.00000000000000 1.00000000000000 0.50000000000000 1.00000000000000 
8
1.00000000000000 0.00000000000000 0.50000000000000 0.00000000000000 0.00000000000000 1.00000000000000 0.50000000000000 1.00000000000000 
8
1.00000000000000 0.00000000000000 0.00000000000000 0.00000000000000 0.00000000000000 1.00000000000000 1.00000000000000 1.00000000000000 
8
1.00000000000000 0.00000000000000 0.50000000000000 0.00000000000000 0.00000000000000 1.00000000000000 0.50000000000000 1.00000000000000 
8
1.00000000000000 0.00000000000000 0.40000000000000 0.00000000000000 0.00000000000000 1.00000000000000 0.60000000000000 1.00000000000000 
8
1.00000000000000 0.00000000000000 0.50000000000000 0.00000000000000 0.00000000000000 1.00000000000000 0.50000000000000 1.00000000000000 
8
1.00000000000000 0.00000000000000 0.70000000000000 0.00000000000000 0.00000000000000 1.00000000000000 0.30000000000000 1.00000000000000 
8
1.00000000000000 0.00000000000000 0.50000000000000 0.00000000000000 0.00000000000000 1.00000000000000 0.50000000000000 1.00000000000000 
8
1.00000000000000 0.00000000000000 0.89000000000000 0.00000000000000 0.00000000000000 1.00000000000000 0.11000000000000 1.00000000000000 
8
1.00000000000000 0.00000000000000 0.50000000000000 0.00000000000000 0.00000000000000 1.00000000000000 0.50000000000000 1.00000000000000 
8
1.00000000000000 0.00000000000000 0.90000000000000 0.00000000000000 0.00000000000000 1.00000000000000 0.10000000000000 1.00000000000000 
8
1.00000000000000 0.00000000000000 0.00000000000000 0.00000000000000 0.00000000000000 1.00000000000000 1.00000000000000 1.00000000000000 
8
1.00000000000000 0.00000000000000 0.90000000000000 0.00000000000000 0.00000000000000 1.00000000000000 0.10000000000000 1.00000000000000 
8
1.00000000000000 0.00000000000000 0.50000000000000 0.00000000000000 0.00000000000000 1.00000000000000 0.50000000000000 1.00000000000000 
8
1.00000000000000 0.00000000000000 0.50000000000000 0.00000000000000 0.00000000000000 1.00000000000000 0.50000000000000 1.00000000000000 
8
1.00000000000000 0.00000000000000 0.00000000000000 0.00000000000000 0.00000000000000 1.00000000000000 1.00000000000000 1.00000000000000 
8
1.00000000000000 0.00000000000000 0.75000000000000 0.00000000000000 0.00000000000000 1.00000000000000 0.25000000000000 1.00000000000000 
8
1.00000000000000 0.00000000000000 0.00000000000000 0.00000000000000 0.00000000000000 1.00000000000000 1.00000000000000 1.00000000000000 
8
1.00000000000000 0.00000000000000 0.09000000000000 0.00000000000000 0.00000000000000 1.00000000000000 0.91000000000000 1.00000000000000 
8
1.00000000000000 0.00000000000000 0.50000000000000 0.00000000000000 0.00000000000000 1.00000000000000 0.50000000000000 1.00000000000000 
8
1.00000000000000 0.00000000000000 0.00000000000000 0.00000000000000 0.00000000000000 1.00000000000000 1.00000000000000 1.00000000000000 
8
1.00000000000000 0.00000000000000 0.50000000000000 0.00000000000000 0.00000000000000 1.00000000000000 0.50000000000000 1.00000000000000 
8
1.00000000000000 0.00000000000000 0.00000000000000 0.00000000000000 0.00000000000000 1.00000000000000 1.00000000000000 1.00000000000000 
8
1.00000000000000 0.00000000000000 0.00000000000000 0.00000000000000 0.00000000000000 1.00000000000000 1.00000000000000 1.00000000000000 
8
1.00000000000000 0.00000000000000 0.90000000000000 0.00000000000000 0.00000000000000 1.00000000000000 0.10000000000000 1.00000000000000 
8
1.00000000000000 0.00000000000000 0.70000000000000 0.00000000000000 0.00000000000000 1.00000000000000 0.30000000000000 1.00000000000000 
8
1.00000000000000 0.00000000000000 0.40000000000000 0.00000000000000 0.00000000000000 1.00000000000000 0.60000000000000 1.00000000000000 
8
1.00000000000000 0.00000000000000 0.50000000000000 0.00000000000000 0.00000000000000 1.00000000000000 0.50000000000000 1.00000000000000 
8
1.00000000000000 0.00000000000000 0.10000000000000 0.00000000000000 0.00000000000000 1.00000000000000 0.90000000000000 1.00000000000000 
8
1.00000000000000 0.00000000000000 0.00000000000000 0.00000000000000 0.00000000000000 1.00000000000000 1.00000000000000 1.00000000000000 
8
1.00000000000000 0.00000000000000 0.60000000000000 0.00000000000000 0.00000000000000 1.00000000000000 0.40000000000000 1.00000000000000 
8
1.00000000000000 0.00000000000000 0.50000000000000 0.00000000000000 0.00000000000000 1.00000000000000 0.50000000000000 1.00000000000000 
8
1.00000000000000 0.00000000000000 0.40000000000000 0.00000000000000 0.00000000000000 1.00000000000000 0.60000000000000 1.00000000000000 
8
1.00000000000000 0.00000000000000 0.90000000000000 0.00000000000000 0.00000000000000 1.00000000000000 0.10000000000000 1.00000000000000 
8
1.00000000000000 0.00000000000000 0.50000000000000 0.00000000000000 0.00000000000000 1.00000000000000 0.50000000000000 1.00000000000000 
8
1.00000000000000 0.00000000000000 0.90000000000000 0.00000000000000 0.00000000000000 1.00000000000000 0.10000000000000 1.00000000000000 
8
1.00000000000000 0.00000000000000 0.00000000000000 0.00000000000000 0.00000000000000 1.00000000000000 1.00000000000000 1.00000000000000 
8
1.00000000000000 0.00000000000000 0.00000000000000 0.00000000000000 0.00000000000000 1.00000000000000 1.00000000000000 1.00000000000000 
8
1.00000000000000 0.00000000000000 0.00000000000000 0.00000000000000 0.00000000000000 1.00000000000000 1.00000000000000 1.00000000000000 
8
1.00000000000000 0.00000000000000 0.40000000000000 0.00000000000000 0.00000000000000 1.00000000000000 0.60000000000000 1.00000000000000 
8
1.00000000000000 0.00000000000000 0.00000000000000 0.00000000000000 0.00000000000000 1.00000000000000 1.00000000000000 1.00000000000000 
8
1.00000000000000 0.00000000000000 0.09000000000000 0.00000000000000 0.00000000000000 1.00000000000000 0.91000000000000 1.00000000000000 
8
1.00000000000000 0.00000000000000 0.00000000000000 0.00000000000000 0.00000000000000 1.00000000000000 1.00000000000000 1.00000000000000 
8
1.00000000000000 0.00000000000000 0.90000000000000 0.00000000000000 0.00000000000000 1.00000000000000 0.10000000000000 1.00000000000000 
8
1.00000000000000 0.00000000000000 0.50000000000000 0.00000000000000 0.00000000000000 1.00000000000000 0.50000000000000 1.00000000000000 
8
1.00000000000000 0.00000000000000 0.00000000000000 0.00000000000000 0.00000000000000 1.00000000000000 1.00000000000000 1.00000000000000 
8
1.00000000000000 0.00000000000000 0.00000000000000 0.00000000000000 0.00000000000000 1.00000000000000 1.00000000000000 1.00000000000000 
8
1.00000000000000 0.00000000000000 0.00000000000000 0.00000000000000 0.00000000000000 1.00000000000000 1.00000000000000 1.00000000000000 
8
1.00000000000000 0.00000000000000 0.90000000000000 0.00000000000000 0.00000000000000 1.00000000000000 0.10000000000000 1.00000000000000 
8
1.00000000000000 0.00000000000000 0.00000000000000 0.00000000000000 0.00000000000000 1.00000000000000 1.00000000000000 1.00000000000000 
8
1.00000000000000 0.00000000000000 0.90000000000000 0.00000000000000 0.00000000000000 1.00000000000000 0.10000000000000 1.00000000000000 
8
1.00000000000000 0.00000000000000 0.00000000000000 0.00000000000000 0.00000000000000 1.00000000000000 1.00000000000000 1.00000000000000 
8
1.00000000000000 0.00000000000000 0.05000000000000 0.00000000000000 0.00000000000000 1.00000000000000 0.95000000000000 1.00000000000000 
8
1.00000000000000 0.00000000000000 0.50000000000000 0.00000000000000 0.00000000000000 1.00000000000000 0.50000000000000 1.00000000000000 
8
1.00000000000000 0.00000000000000 0.50000000000000 0.00000000000000 0.00000000000000 1.00000000000000 0.50000000000000 1.00000000000000 
8
1.00000000000000 0.00000000000000 0.00000000000000 0.00000000000000 0.00000000000000 1.00000000000000 1.00000000000000 1.00000000000000 
8
1.00000000000000 0.00000000000000 0.50000000000000 0.00000000000000 0.00000000000000 1.00000000000000 0.50000000000000 1.00000000000000 
8
1.00000000000000 0.00000000000000 0.00000000000000 0.00000000000000 0.00000000000000 1.00000000000000 1.00000000000000 1.00000000000000 
8
1.00000000000000 0.00000000000000 0.10000000000000 0.00000000000000 0.00000000000000 1.00000000000000 0.90000000000000 1.00000000000000 
8
1.00000000000000 0.00000000000000 0.00000000000000 0.00000000000000 0.00000000000000 1.00000000000000 1.00000000000000 1.00000000000000 
8
1.00000000000000 0.00000000000000 0.50000000000000 0.00000000000000 0.00000000000000 1.00000000000000 0.50000000000000 1.00000000000000 
8
1.00000000000000 0.00000000000000 0.00000000000000 0.00000000000000 0.00000000000000 1.00000000000000 1.00000000000000 1.00000000000000 
8
1.00000000000000 0.00000000000000 0.00000000000000 0.00000000000000 0.00000000000000 1.00000000000000 1.00000000000000 1.00000000000000 
8
1.00000000000000 0.00000000000000 0.90000000000000 0.00000000000000 0.00000000000000 1.00000000000000 0.10000000000000 1.00000000000000 
8
1.00000000000000 0.00000000000000 0.01000000000000 0.00000000000000 0.00000000000000 1.00000000000000 0.99000000000000 1.00000000000000 
4
0.97000000000000 0.00000000000000 0.03000000000000 1.00000000000000 
2
0.99950000000000 0.00050000000000 
2
0.99995000000000 0.00005000000000 
2
0.99999500000000 0.00000500000000 
2
0.99990000000000 0.00010000000000 
2
0.99999000000000 0.00001000000000 
2
0.99900000000000 0.00100000000000 
2
0.99975000000000 0.00025000000000 
2
0.99999000000000 0.00001000000000 
2
0.99995000000000 0.00005000000000 
2
0.99999000000000 0.00001000000000 
2
0.99990000000000 0.00010000000000 
2
0.99975000000000 0.00025000000000 
2
0.99990000000000 0.00010000000000 
2
0.99990000000000 0.00010000000000 
2
0.99990000000000 0.00010000000000 
2
0.99989000000000 0.00011000000000 
2
0.99999900000000 0.00000100000000 
2
0.99990000000000 0.00010000000000 
2
0.99990000000000 0.00010000000000 
2
0.99990000000000 0.00010000000000 
2
0.99998000000000 0.00002000000000 
2
0.99999000000000 0.00001000000000 
2
0.99990000000000 0.00010000000000 
2
0.99995000000000 0.00005000000000 
2
0.99800000000000 0.00200000000000 
2
0.99999000000000 0.00001000000000 
2
0.99974000000000 0.00026000000000 
2
0.99999800000000 0.00000200000000 
2
0.99989000000000 0.00011000000000 
2
0.99995000000000 0.00005000000000 
2
0.99990000000000 0.00010000000000 
2
0.99996000000000 0.00004000000000 
2
0.99981000000000 0.00019000000000 
2
0.99990000000000 0.00010000000000 
2
0.99998000000000 0.00002000000000 
2
0.99990000000000 0.00010000000000 
2
0.99990000000000 0.00010000000000 
2
0.99992000000000 0.00008000000000 
2
0.99990000000000 0.00010000000000 
2
0.99999000000000 0.00001000000000 
2
0.99960000000000 0.00040000000000 
2
0.99996000000000 0.00004000000000 
2
0.99995000000000 0.00005000000000 
2
0.99990000000000 0.00010000000000 
2
0.99950000000000 0.00050000000000 
2
0.99999000000000 0.00001000000000 
2
0.99997300000000 0.00002700000000 
2
0.99995000000000 0.00005000000000 
2
0.99999000000000 0.00001000000000 
2
0.99990000000000 0.00010000000000 
2
0.99990000000000 0.00010000000000 
2
0.99999000000000 0.00001000000000 
2
0.99982000000000 0.00018000000000 
2
0.99990000000000 0.00010000000000 
2
0.99950000000000 0.00050000000000 
2
0.99990000000000 0.00010000000000 
2
0.99995000000000 0.00005000000000 
2
0.99990000000000 0.00010000000000 
2
0.99985000000000 0.00015000000000 
2
0.99960000000000 0.00040000000000 
2
0.99995000000000 0.00005000000000 
2
0.99998000000000 0.00002000000000 
2
0.99999000000000 0.00001000000000 
2
0.99990000000000 0.00010000000000 
2
0.99990000000000 0.00010000000000 
2
0.99980000000000 0.00020000000000 
2
0.99950000000000 0.00050000000000 
2
0.99999000000000 0.00001000000000 
2
0.99950000000000 0.00050000000000 
2
0.99980000000000 0.00020000000000 
2
0.99910000000000 0.00090000000000 
2
0.99995000000000 0.00005000000000 
2
0.99980000000000 0.00020000000000 
2
0.99980000000000 0.00020000000000 
2
0.99980000000000 0.00020000000000 
2
0.99992000000000 0.00008000000000 
2
0.99940000000000 0.00060000000000 
2
0.99998000000000 0.00002000000000 
2
0.99999000000000 0.00001000000000 
2
0.99990000000000 0.00010000000000 
2
0.99990000000000 0.00010000000000 
2
0.99950000000000 0.00050000000000 
2
0.99998000000000 0.00002000000000 
2
0.99990000000000 0.00010000000000 
2
0.99998000000000 0.00002000000000 
2
0.99970000000000 0.00030000000000 
2
0.99984000000000 0.00016000000000 
2
0.99960000000000 0.00040000000000 
2
0.99989000000000 0.00011000000000 
2
0.99993000000000 0.00007000000000 
2
0.99997000000000 0.00003000000000 
2
0.99990000000000 0.00010000000000 
2
0.99900000000000 0.00100000000000 
2
0.99600000000000 0.00400000000000 
2
0.99990000000000 0.00010000000000 
2
0.99990000000000 0.00010000000000 
2
0.99990000000000 0.00010000000000 
2
0.99998000000000 0.00002000000000 
2
0.99995000000000 0.00005000000000 
2
0.99650000000000 0.00350000000000 
2
0.99990000000000 0.00010000000000 
2
0.99280000000000 0.00720000000000 
2
0.99990000000000 0.00010000000000 
2
0.99996000000000 0.00004000000000 
2
0.99985000000000 0.00015000000000 
2
0.99990000000000 0.00010000000000 
2
0.99990000000000 0.00010000000000 
2
0.99990000000000 0.00010000000000 
2
0.99997709000000 0.00002291000000 
2
0.99960000000000 0.00040000000000 
2
0.99600000000000 0.00400000000000 
2
0.99989000000000 0.00011000000000 
2
0.99995000000000 0.00005000000000 
2
0.99990000000000 0.00010000000000 
2
0.99800000000000 0.00200000000000 
2
0.99975000000000 0.00025000000000 
2
0.99880000000000 0.00120000000000 
2
0.99995000000000 0.00005000000000 
2
0.99850000000000 0.00150000000000 
2
0.99987000000000 0.00013000000000 
2
0.99950000000000 0.00050000000000 
2
0.99995000000000 0.00005000000000 
2
0.99995000000000 0.00005000000000 
2
0.99999000000000 0.00001000000000 
2
0.99990000000000 0.00010000000000 
2
0.99998000000000 0.00002000000000 
2
0.99980000000000 0.00020000000000 
2
0.99999988000000 0.00000012000000 
2
0.99995000000000 0.00005000000000 
2
0.99990000000000 0.00010000000000 
2
0.99998000000000 0.00002000000000 
2
0.99999000000000 0.00001000000000 
2
0.99990000000000 0.00010000000000 
2
0.99990000000000 0.00010000000000 
2
0.99999600000000 0.00000400000000 
2
0.99950000000000 0.00050000000000 
2
0.99999984000000 0.00000016000000 
2
0.99990000000000 0.00010000000000 
2
0.99990000000000 0.00010000000000 
2
0.99990000000000 0.00010000000000 
2
0.99990668000000 0.00009332000000 
2
0.99990000000000 0.00010000000000 
2
0.99940000000000 0.00060000000000 
2
0.99990000000000 0.00010000000000 
2
0.99996880000000 0.00003120000000 
2
0.99995000000000 0.00005000000000 
2
0.99999200000000 0.00000800000000 
2
0.99990000000000 0.00010000000000 
2
0.99975000000000 0.00025000000000 
2
0.99990000000000 0.00010000000000 
2
0.99764000000000 0.00236000000000 
2
0.99999000000000 0.00001000000000 
2
0.99990000000000 0.00010000000000 
2
0.99960000000000 0.00040000000000 
2
0.99999000000000 0.00001000000000 
2
0.99980000000000 0.00020000000000 
2
0.99990000000000 0.00010000000000 
2
0.99998000000000 0.00002000000000 
2
0.99990000000000 0.00010000000000 
2
0.99990000000000 0.00010000000000 
2
0.99950000000000 0.00050000000000 
2
0.99950000000000 0.00050000000000 
2
0.99991000000000 0.00009000000000 
2
0.99991000000000 0.00009000000000 
2
0.99990000000000 0.00010000000000 
2
0.99990000000000 0.00010000000000 
2
0.99995000000000 0.00005000000000 
2
0.99997000000000 0.00003000000000 
2
0.99850000000000 0.00150000000000 
2
0.99950000000000 0.00050000000000 
2
0.99995000000000 0.00005000000000 
2
0.99994000000000 0.00006000000000 
2
0.99990000000000 0.00010000000000 
2
0.99980000000000 0.00020000000000 
2
0.99990000000000 0.00010000000000 
2
0.99990000000000 0.00010000000000 
2
0.99997000000000 0.00003000000000 
2
0.99997000000000 0.00003000000000 
2
0.99990000000000 0.00010000000000 
2
0.99989000000000 0.00011000000000 
2
0.99950000000000 0.00050000000000 
2
0.99990000000000 0.00010000000000 
2
0.99990000000000 0.00010000000000 
2
0.99990000000000 0.00010000000000 
2
0.99997000000000 0.00003000000000 
2
0.99990000000000 0.00010000000000 
2
0.99999000000000 0.00001000000000 
2
0.99990000000000 0.00010000000000 
2
0.99996000000000 0.00004000000000 
2
0.99990000000000 0.00010000000000 
2
0.99980000000000 0.00020000000000 
2
0.99997000000000 0.00003000000000 
2
0.99998000000000 0.00002000000000 
2
0.99990000000000 0.00010000000000 
2
0.99993000000000 0.00007000000000 
